p cnf 42 126
a 13 39 0
e 1 2 3 4 5 6 7 8 9 10 11 12 14 15 16 17 18 19 20 21 22 23 24 25 26 27 28 29 30 31 32 33 34 35 36 37 38 40 41 42 0
-3 1 0
-3 -2 0
-1 2 3 0
4 -5 -6 0
-4 5 -6 0
4 5 6 0
-4 -5 6 0
-8 -6 0
-8 -7 0
6 7 8 0
-3 8 -9 0
3 -8 -9 0
-3 -8 9 0
3 8 9 0
-7 -8 -10 0
7 8 -10 0
-7 8 10 0
7 -8 10 0
11 -9 0
11 10 0
9 -10 -11 0
-13 -8 0
-13 12 0
8 -12 13 0
-14 -13 0
-14 -3 0
13 3 14 0
15 -11 0
15 -14 0
11 14 -15 0
12 -5 -16 0
-12 5 -16 0
12 5 16 0
-12 -5 16 0
17 16 0
17 5 0
-16 -5 -17 0
-2 -17 -18 0
2 17 -18 0
-2 17 18 0
2 -17 18 0
-19 1 0
-19 6 0
-1 -6 19 0
-20 8 0
-20 -19 0
-8 19 20 0
-20 -21 -22 0
20 21 -22 0
-20 21 22 0
20 -21 22 0
-17 -8 -23 0
17 8 -23 0
-17 8 23 0
17 -8 23 0
24 16 0
24 1 0
-16 -1 -24 0
25 23 0
25 -24 0
-23 24 -25 0
16 2 -26 0
-16 -2 -26 0
16 -2 26 0
-16 2 26 0
26 -12 -27 0
-26 12 -27 0
26 12 27 0
-26 -12 27 0
28 -25 0
28 27 0
25 -27 -28 0
-29 22 0
-29 28 0
-22 -28 29 0
-30 18 0
-30 -29 0
-18 29 30 0
-15 30 -31 0
15 -30 -31 0
-15 -30 31 0
15 30 31 0
17 -32 0
-17 -32 0
-1 -2 -33 0
1 2 -33 0
-1 2 33 0
1 -2 33 0
-34 32 0
-34 33 0
-32 -33 34 0
35 -31 0
35 -34 0
31 34 -35 0
-36 21 0
-36 -8 0
-21 8 36 0
13 -21 -37 0
-13 21 -37 0
13 21 37 0
-13 -21 37 0
-39 38 0
-39 23 0
-38 -23 39 0
37 -39 -40 0
-37 39 -40 0
37 39 40 0
-37 -39 40 0
41 36 0
41 -40 0
-36 40 -41 0
42 35 0
42 -41 0
-35 41 -42 0
39 -8 19 1 -32 0
11 15 -26 0
-20 -23 -18 -19 0
35 15 7 0
-7 -33 3 2 0
1 -30 -7 -22 -11 0
15 13 -35 0
-34 -42 -19 -38 0
-10 -17 -12 0
-1 34 6 15 -40 0
-11 -21 -17 41 29 42 36 0
42 0
